(set-logic QF_S)
(declare-fun var0 () String)
(declare-fun var1 () String)
(declare-fun var2 () String)
(declare-fun var3 () Int)
(declare-fun var4 () Int)
(declare-fun var5 () Int)
(declare-fun var6 () Bool)
(declare-fun var7 () Bool)
(declare-fun var8 () Bool)
(assert (str.contains (str.at var0 var4) (str.substr var0 var5 var3)))
(assert (not (not var7)))
(assert (>= (str.indexof "gCNGRfi;:V" var0 var3) (str.len var0)))
(assert (str.prefixof (str.substr var1 var4 var3) (str.replace (str.substr var0 var4 var5) (str.substr var1 var5 var4) (str.at var2 var3))))
(check-sat)